Route #1: 10
Route #2: 2 91
Route #3: 3 93 18 109 47 79 49 99 35 107 95 42 59
Route #4: 85 63 74 1 7 98 34
Route #5: 112 105 84 75 83 8 14 68 43 67 40 39 90 37 71 27 44 114 30 88
Route #6: 89 17 66 5 16
Route #7: 29 78 54 62 94 20 101 4 92 57 100 28
Route #8: 23 65 113 12 45 96 58 77 38 97 80 55 76 24 102 72 26 64
Route #9: 13 70 36 56 31 11 81 33 61 103 69 46
Route #10: 111 110 21 82 9 53 52 50
Route #11: 104 41 25 22 51 19 108 48 6 60 86 87 73 106 32 15
Cost 13223.989280255713